\ Model warehouse_inventory
\ LP format - for model browsing. Use MPS format to capture full model detail.
Minimize
  2396 INV1 + 1455 ORD1 + 51 SLACK1 + 2396 INV2 + 1455 ORD2 + 51 SLACK2
   + 2396 INV3 + 1455 ORD3 + 51 SLACK3 + 2396 INV4 + 1455 ORD4 + 51 SLACK4
   + 2396 INV5 + 1455 ORD5 + 51 SLACK5 + 2396 INV6 + 1455 ORD6 + 51 SLACK6
Subject To
 INIT_INV: INV1 = 100
 DEMAND1: 150 INV1 - 100 ORD1 + SLACK1 >= 1
 SLACK_LIMIT1: - 20 INV1 + SLACK1 <= 0
 DEMAND2: 150 INV2 - 100 ORD2 + SLACK2 >= 1
 SLACK_LIMIT2: - 20 INV2 + SLACK2 <= 0
 DEMAND3: 150 INV3 - 100 ORD3 + SLACK3 >= 1
 SLACK_LIMIT3: - 20 INV3 + SLACK3 <= 0
 DEMAND4: 150 INV4 - 100 ORD4 + SLACK4 >= 1
 SLACK_LIMIT4: - 20 INV4 + SLACK4 <= 0
 DEMAND5: 150 INV5 - 100 ORD5 + SLACK5 >= 1
 SLACK_LIMIT5: - 20 INV5 + SLACK5 <= 0
 DEMAND6: 150 INV6 - 100 ORD6 + SLACK6 >= 1
 SLACK_LIMIT6: - 20 INV6 + SLACK6 <= 0
 INVENTORY_TRANSITION2: INV1 + ORD1 - INV2 = 0
 INVENTORY_TRANSITION3: INV2 + ORD2 - INV3 = 0
 INVENTORY_TRANSITION4: INV3 + ORD3 - INV4 = 0
 INVENTORY_TRANSITION5: INV4 + ORD4 - INV5 = 0
 INVENTORY_TRANSITION6: INV5 + ORD5 - INV6 = 0
Bounds
 ORD1 <= 100
 INV2 <= 100
 ORD2 <= 100
 INV3 <= 100
 ORD3 <= 100
 INV4 <= 100
 ORD4 <= 100
 INV5 <= 100
 ORD5 <= 100
 INV6 <= 100
 ORD6 <= 100
Generals
 INV1 ORD1 INV2 ORD2 INV3 ORD3 INV4 ORD4 INV5 ORD5 INV6 ORD6
End
